language ESSENCE' 1.0

letting fixed be 
[
    [4,5,0,9,0,0,0,0,0],
    [0,0,6,8,0,0,9,0,0],
    [0,8,0,0,2,0,0,3,0],
    [0,0,0,5,0,0,0,0,0],
    [6,4,0,0,0,0,0,7,5],
    [5,0,1,0,7,8,0,0,0],
    [3,7,5,0,8,0,1,4,9],
    [0,0,2,0,0,0,6,0,7],
    [0,6,4,7,0,1,0,2,3]
]